p cnf 14 31
14 13 -3 0
-14 -13 -1 0
14 11 -8 0
14 -9 -4 0
-14 -8 3 0
-14 -7 5 0
-14 -2 1 0
-14 2 1 0
-13 12 3 0
-13 -11 7 0
13 -7 -4 0
13 7 -3 0
-13 2 1 0
-12 -7 1 0
-12 5 1 0
-11 9 7 0
-11 -8 6 0
11 7 -3 0
-11 5 -4 0
10 9 -4 0
-10 -9 3 0
10 -9 2 0
10 4 -1 0
9 7 -5 0
9 -7 3 0
9 -5 3 0
9 -5 2 0
-7 -5 4 0
-7 2 1 0
-6 5 -4 0
3 2 1 0
